c Random generated cnf formula, satisfiable: false
p cnf 10 50
10 -9 -4 0
7 9 2 0
-2 8 -10 0
-9 -8 10 0
1 -7 6 0
5 -1 3 0
-10 -7 2 0
2 -4 -5 0
-4 -8 3 0
6 -8 -2 0
1 8 -6 0
-9 -2 -6 0
2 -7 -5 0
-4 -9 5 0
8 -6 -4 0
3 -2 8 0
6 -9 2 0
-3 -2 6 0
-4 8 10 0
-10 -3 -9 0
5 1 2 0
1 2 -7 0
6 3 -5 0
-2 -8 9 0
-2 1 3 0
4 -8 -5 0
-1 6 -8 0
-5 4 2 0
-2 10 -3 0
-5 7 -9 0
7 8 -6 0
8 3 -7 0
10 -9 -2 0
6 9 -1 0
10 5 2 0
5 -9 -1 0
4 -9 -5 0
-8 5 -9 0
-2 10 6 0
-9 8 -1 0
-9 -5 7 0
-2 -4 -5 0
10 -2 -8 0
7 -6 2 0
-7 4 5 0
-5 -1 8 0
2 -1 -10 0
-2 8 6 0
-1 -9 8 0
-6 -3 9 0
